language Essence 1.3

letting M be
        function((0, 0) --> 0, (0, 1) --> 1, (0, 2) --> 2, (0, 3) --> 3, (0, 4) --> 4, (1, 0) --> 1, (1, 1) --> 0,
                 (1, 2) --> 2, (1, 3) --> 3, (1, 4) --> 4, (2, 0) --> 2, (2, 1) --> 2, (2, 2) --> 2, (2, 3) --> 2,
                 (2, 4) --> 2, (3, 0) --> 3, (3, 1) --> 3, (3, 2) --> 2, (3, 3) --> 2, (3, 4) --> 2, (4, 0) --> 4,
                 (4, 1) --> 4, (4, 2) --> 2, (4, 3) --> 2, (4, 4) --> 2)
letting id be 0
